55 38 81 82 62 11 71 32 1 65 6 77 26 53 30 14 50 36 41 79 85 61 75 70 47 49 29 31 5 58 17 59 15 83 44 57 37 22 0 92 42 3 64 66 18 86 89 99 56 46 72 91 24 25 23 60 87 43 40 39 78 34 8 97 4 20 2 88 28 84 63 13 67 96 76 12 54 95 48 10 35 74 7 68 16 19 90 51 80 52 94 69 45 9 27 21 73 93 33 98 

